129 130 134 133 132 131 115 88 87 79 80 81 82 83 84 85 86 110 109 108 107 106 105 104 103 102 101 100 99 90 89 98 97 96 95 94 93 92 91 73 74 77 78 76 75 72 71 44 43 45 67 62 61 63 65 64 66 68 69 70 21 20 19 8 7 10 9 12 11 14 13 15 16 41 17 18 42 40 39 38 37 23 22 6 5 4 3 1 2 28 29 30 32 31 33 34 27 26 36 35 25 24 47 46 48 59 60 58 57 56 55 54 53 52 51 50 49 112 113 114 111 144 143 142 141 140 139 138 137 136 135 126 124 121 119 118 117 116 120 122 123 125 127 128 79950
26 27 3 4 5 6 1 2 28 29 30 33 32 31 34 49 51 52 50 53 54 56 55 57 58 79 80 81 82 83 84 85 86 108 105 104 106 107 109 110 111 113 114 112 144 143 142 140 141 139 138 136 137 135 115 131 132 133 134 130 129 127 128 126 125 124 123 122 121 120 119 118 117 116 92 91 73 74 75 76 77 78 89 90 99 98 97 93 94 95 96 100 101 102 103 88 87 60 59 48 47 46 62 61 63 64 65 66 67 68 69 70 72 71 45 44 43 14 13 11 12 10 9 7 8 19 20 21 18 17 16 15 42 41 40 39 38 37 23 22 24 25 36 35 70250 
109 85 86 110 114 113 112 111 144 143 142 141 140 139 138 137 136 135 134 133 132 131 115 130 129 128 127 126 125 124 123 122 121 120 119 118 117 116 92 91 93 94 98 90 99 97 96 95 73 74 76 75 77 78 89 100 102 103 101 88 87 39 40 38 37 31 32 33 34 35 24 36 25 26 27 30 29 28 2 1 3 4 5 6 22 23 20 18 17 16 15 42 41 21 19 8 7 9 10 11 12 13 14 43 44 45 71 72 70 69 68 67 66 65 63 64 62 61 60 48 46 47 59 57 56 55 53 52 49 50 51 54 58 84 83 82 81 80 79 104 105 106 107 108 78250 
142 141 140 139 138 137 136 135 134 132 115 131 133 130 129 128 127 126 125 124 123 122 121 120 119 118 117 116 92 91 89 78 77 76 75 74 73 93 94 95 96 97 98 90 99 100 101 102 103 88 87 48 46 47 59 60 61 62 63 64 65 66 67 68 69 70 71 72 45 44 43 14 13 12 9 10 11 7 8 19 20 21 42 41 15 16 17 18 40 39 38 37 23 22 6 5 4 3 1 2 28 29 30 27 26 24 25 36 35 34 32 31 33 49 50 51 52 53 54 55 56 57 58 82 80 79 81 83 84 85 86 109 108 105 104 106 107 110 111 113 114 112 144 143 69650 
116 91 92 93 94 95 96 97 98 99 90 89 78 77 76 75 74 73 72 71 45 44 43 69 68 67 66 65 63 61 62 64 70 21 20 19 8 7 10 9 11 12 13 14 15 16 42 41 17 18 40 39 38 37 23 22 6 5 4 3 1 2 28 29 27 26 24 25 36 35 30 33 32 31 34 50 51 55 58 60 46 47 48 59 57 56 54 53 52 49 111 114 113 112 110 107 106 105 104 108 109 86 85 84 83 82 81 80 79 87 88 101 100 102 103 115 131 132 133 134 135 136 140 141 143 144 142 139 138 137 130 129 128 127 126 125 124 123 122 121 120 119 118 117 75450
88 87 40 39 38 37 24 25 36 35 26 27 30 34 33 32 31 29 2 1 28 5 6 4 3 22 23 19 7 9 10 11 12 8 20 21 18 17 42 41 16 15 14 13 44 43 45 71 72 91 92 93 94 95 96 116 120 119 118 117 121 122 123 124 125 126 127 128 129 130 134 132 133 131 115 136 135 137 138 139 140 141 142 143 144 113 114 112 111 110 107 106 104 105 108 109 86 85 84 83 81 79 80 82 58 57 55 53 51 49 50 52 54 56 60 59 47 46 48 62 61 63 64 65 66 67 68 69 70 77 78 76 74 73 75 89 90 98 97 99 100 101 102 103 82600
117 118 119 120 121 122 123 124 125 126 127 128 129 130 137 140 141 142 143 144 139 138 136 135 134 133 132 131 115 103 100 101 102 88 87 81 79 80 82 83 84 85 86 109 108 105 104 106 107 110 113 112 111 114 31 33 32 30 29 28 2 1 3 4 5 6 22 23 37 38 39 40 21 42 41 18 17 16 15 14 13 9 11 12 10 7 8 19 20 25 24 27 26 35 36 34 49 50 51 52 53 54 55 56 57 58 59 46 47 48 60 61 62 63 64 65 67 66 69 70 68 45 44 43 71 72 73 74 75 76 77 78 89 90 99 97 95 96 98 94 93 92 91 116 80850  
131 115 132 134 135 136 137 138 139 140 141 142 143 144 114 113 112 111 110 86 109 108 107 106 105 104 100 101 102 103 88 87 85 84 83 82 81 80 79 59 47 46 48 60 65 67 68 70 41 17 42 16 15 14 13 7 9 10 11 12 8 19 20 18 21 40 39 38 37 23 22 6 5 4 3 1 2 28 29 27 35 36 25 24 26 30 34 31 32 33 49 50 51 52 53 54 55 56 57 58 61 62 63 64 66 69 71 45 43 44 72 73 74 75 76 77 78 89 90 99 98 97 96 95 94 93 91 92 116 117 118 119 120 121 122 123 124 125 126 127 128 129 130 133 76350
53 54 55 56 57 58 48 46 47 59 60 80 79 81 82 83 84 85 86 106 107 102 101 100 103 88 87 104 105 108 109 110 112 114 113 111 144 143 142 141 140 139 138 137 136 135 131 115 132 133 134 130 129 128 127 126 125 124 123 122 121 120 119 118 116 117 91 92 74 75 76 73 94 93 95 96 97 98 99 90 89 78 77 67 66 64 62 61 63 65 68 69 70 72 71 45 44 43 14 13 12 11 10 9 7 8 19 20 18 17 41 42 16 15 21 40 39 38 37 23 22 24 25 36 35 27 26 5 6 4 3 1 2 28 29 30 34 32 31 33 49 50 51 52 72400 
104 100 101 102 103 88 87 85 84 83 82 81 80 79 60 59 48 46 47 58 57 56 55 54 53 52 51 50 49 33 31 32 34 30 29 3 4 5 6 1 2 28 35 36 24 25 26 27 22 23 38 40 39 37 21 18 41 42 15 16 17 20 19 8 7 9 10 11 12 13 14 43 44 45 71 72 70 68 64 63 62 61 65 66 67 69 73 74 75 76 77 78 89 90 99 98 97 96 95 94 93 91 92 117 116 118 119 120 121 122 123 124 125 126 127 128 129 130 134 133 115 131 132 135 136 137 138 139 140 141 142 143 144 111 114 113 112 110 86 109 108 107 106 105 72600